81 112
42 38
79 52
1 89
58 29
175 106
178 13
90 124
167 118
112 128
144 91
114 70
121 119
66 63
55 43
35 68
172 89
84 116
31 128
91 69
87 100
150 126
122 96
166 113
4 50
50 93
96 111
75 57
24 124
145 121
99 44
132 7
41 58
104 69
162 32
161 86
169 101
77 82
149 114
179 75
147 91
10 16
17 101
116 72
100 5
52 63
92 118
83 69
102 126
8 104
61 91
78 41
